(set-logic QF_LRA)
(declare-fun T1 () Real )
(declare-fun T2 () Real )
(declare-fun T3 () Real )
(declare-fun T4 () Real )
(declare-fun T5 () Real )
(declare-fun T6 () Real )
(declare-fun T7 () Real )
(declare-fun T8 () Real )
(declare-fun Z () Real )
(assert ( and 
(or ( <= ( + T1 9 ) T2 ) ( <= ( + T2 8 ) T1 ) )
(or ( <= ( + T1 30 )  ( + T2 8 ) ) ( <= ( + T2 102 )( + T1 9 ) ) )
(or ( <= ( + T1 117 )  ( + T2 102 ) ) ( <= ( + T2 111 )( + T1 30 ) ) )
(or ( <= ( + T1 173 )  ( + T2 111 ) ) ( <= ( + T2 186 )( + T1 117 ) ) )
(or ( <= ( + T1 213 )  ( + T2 186 ) ) ( <= ( + T2 191 )( + T1 173 ) ) )
(or ( <= ( + T1 291 )  ( + T2 191 ) ) ( <= ( + T2 205 )( + T1 213 ) ) )
(or ( <= ( + T1 9 ) T3 ) ( <= ( + T3 57 ) T1 ) )
(or ( <= ( + T1 30 )  ( + T3 57 ) ) ( <= ( + T3 75 )( + T1 9 ) ) )
(or ( <= ( + T1 117 )  ( + T3 75 ) ) ( <= ( + T3 152 )( + T1 30 ) ) )
(or ( <= ( + T1 173 )  ( + T3 152 ) ) ( <= ( + T3 171 )( + T1 117 ) ) )
(or ( <= ( + T1 213 )  ( + T3 171 ) ) ( <= ( + T3 201 )( + T1 173 ) ) )
(or ( <= ( + T1 291 )  ( + T3 201 ) ) ( <= ( + T3 217 )( + T1 213 ) ) )
(or ( <= ( + T1 9 ) T4 ) ( <= ( + T4 29 ) T1 ) )
(or ( <= ( + T1 30 )  ( + T4 29 ) ) ( <= ( + T4 124 )( + T1 9 ) ) )
(or ( <= ( + T1 117 )  ( + T4 124 ) ) ( <= ( + T4 204 )( + T1 30 ) ) )
(or ( <= ( + T1 173 )  ( + T4 204 ) ) ( <= ( + T4 287 )( + T1 117 ) ) )
(or ( <= ( + T1 213 )  ( + T4 287 ) ) ( <= ( + T4 356 )( + T1 173 ) ) )
(or ( <= ( + T1 291 )  ( + T4 356 ) ) ( <= ( + T4 397 )( + T1 213 ) ) )
(or ( <= ( + T1 9 ) T5 ) ( <= ( + T5 4 ) T1 ) )
(or ( <= ( + T1 30 )  ( + T5 4 ) ) ( <= ( + T5 19 )( + T1 9 ) ) )
(or ( <= ( + T1 117 )  ( + T5 19 ) ) ( <= ( + T5 95 )( + T1 30 ) ) )
(or ( <= ( + T1 173 )  ( + T5 95 ) ) ( <= ( + T5 179 )( + T1 117 ) ) )
(or ( <= ( + T1 213 )  ( + T5 179 ) ) ( <= ( + T5 220 )( + T1 173 ) ) )
(or ( <= ( + T1 291 )  ( + T5 220 ) ) ( <= ( + T5 228 )( + T1 213 ) ) )
(or ( <= ( + T1 9 ) T6 ) ( <= ( + T6 43 ) T1 ) )
(or ( <= ( + T1 30 )  ( + T6 43 ) ) ( <= ( + T6 92 )( + T1 9 ) ) )
(or ( <= ( + T1 117 )  ( + T6 92 ) ) ( <= ( + T6 173 )( + T1 30 ) ) )
(or ( <= ( + T1 173 )  ( + T6 173 ) ) ( <= ( + T6 254 )( + T1 117 ) ) )
(or ( <= ( + T1 213 )  ( + T6 254 ) ) ( <= ( + T6 310 )( + T1 173 ) ) )
(or ( <= ( + T1 291 )  ( + T6 310 ) ) ( <= ( + T6 330 )( + T1 213 ) ) )
(or ( <= ( + T1 9 ) T7 ) ( <= ( + T7 58 ) T1 ) )
(or ( <= ( + T1 30 )  ( + T7 58 ) ) ( <= ( + T7 122 )( + T1 9 ) ) )
(or ( <= ( + T1 117 )  ( + T7 122 ) ) ( <= ( + T7 187 )( + T1 30 ) ) )
(or ( <= ( + T1 173 )  ( + T7 187 ) ) ( <= ( + T7 206 )( + T1 117 ) ) )
(or ( <= ( + T1 213 )  ( + T7 206 ) ) ( <= ( + T7 244 )( + T1 173 ) ) )
(or ( <= ( + T1 291 )  ( + T7 244 ) ) ( <= ( + T7 313 )( + T1 213 ) ) )
(or ( <= ( + T1 9 ) T8 ) ( <= ( + T8 84 ) T1 ) )
(or ( <= ( + T1 30 )  ( + T8 84 ) ) ( <= ( + T8 130 )( + T1 9 ) ) )
(or ( <= ( + T1 117 )  ( + T8 130 ) ) ( <= ( + T8 169 )( + T1 30 ) ) )
(or ( <= ( + T1 173 )  ( + T8 169 ) ) ( <= ( + T8 181 )( + T1 117 ) ) )
(or ( <= ( + T1 213 )  ( + T8 181 ) ) ( <= ( + T8 198 )( + T1 173 ) ) )
(or ( <= ( + T1 291 )  ( + T8 198 ) ) ( <= ( + T8 266 )( + T1 213 ) ) )
(or ( <= ( + T2 8 ) T3 ) ( <= ( + T3 57 ) T2 ) )
(or ( <= ( + T2 102 )  ( + T3 57 ) ) ( <= ( + T3 75 )( + T2 8 ) ) )
(or ( <= ( + T2 111 )  ( + T3 75 ) ) ( <= ( + T3 152 )( + T2 102 ) ) )
(or ( <= ( + T2 186 )  ( + T3 152 ) ) ( <= ( + T3 171 )( + T2 111 ) ) )
(or ( <= ( + T2 191 )  ( + T3 171 ) ) ( <= ( + T3 201 )( + T2 186 ) ) )
(or ( <= ( + T2 205 )  ( + T3 201 ) ) ( <= ( + T3 217 )( + T2 191 ) ) )
(or ( <= ( + T2 8 ) T4 ) ( <= ( + T4 29 ) T2 ) )
(or ( <= ( + T2 102 )  ( + T4 29 ) ) ( <= ( + T4 124 )( + T2 8 ) ) )
(or ( <= ( + T2 111 )  ( + T4 124 ) ) ( <= ( + T4 204 )( + T2 102 ) ) )
(or ( <= ( + T2 186 )  ( + T4 204 ) ) ( <= ( + T4 287 )( + T2 111 ) ) )
(or ( <= ( + T2 191 )  ( + T4 287 ) ) ( <= ( + T4 356 )( + T2 186 ) ) )
(or ( <= ( + T2 205 )  ( + T4 356 ) ) ( <= ( + T4 397 )( + T2 191 ) ) )
(or ( <= ( + T2 8 ) T5 ) ( <= ( + T5 4 ) T2 ) )
(or ( <= ( + T2 102 )  ( + T5 4 ) ) ( <= ( + T5 19 )( + T2 8 ) ) )
(or ( <= ( + T2 111 )  ( + T5 19 ) ) ( <= ( + T5 95 )( + T2 102 ) ) )
(or ( <= ( + T2 186 )  ( + T5 95 ) ) ( <= ( + T5 179 )( + T2 111 ) ) )
(or ( <= ( + T2 191 )  ( + T5 179 ) ) ( <= ( + T5 220 )( + T2 186 ) ) )
(or ( <= ( + T2 205 )  ( + T5 220 ) ) ( <= ( + T5 228 )( + T2 191 ) ) )
(or ( <= ( + T2 8 ) T6 ) ( <= ( + T6 43 ) T2 ) )
(or ( <= ( + T2 102 )  ( + T6 43 ) ) ( <= ( + T6 92 )( + T2 8 ) ) )
(or ( <= ( + T2 111 )  ( + T6 92 ) ) ( <= ( + T6 173 )( + T2 102 ) ) )
(or ( <= ( + T2 186 )  ( + T6 173 ) ) ( <= ( + T6 254 )( + T2 111 ) ) )
(or ( <= ( + T2 191 )  ( + T6 254 ) ) ( <= ( + T6 310 )( + T2 186 ) ) )
(or ( <= ( + T2 205 )  ( + T6 310 ) ) ( <= ( + T6 330 )( + T2 191 ) ) )
(or ( <= ( + T2 8 ) T7 ) ( <= ( + T7 58 ) T2 ) )
(or ( <= ( + T2 102 )  ( + T7 58 ) ) ( <= ( + T7 122 )( + T2 8 ) ) )
(or ( <= ( + T2 111 )  ( + T7 122 ) ) ( <= ( + T7 187 )( + T2 102 ) ) )
(or ( <= ( + T2 186 )  ( + T7 187 ) ) ( <= ( + T7 206 )( + T2 111 ) ) )
(or ( <= ( + T2 191 )  ( + T7 206 ) ) ( <= ( + T7 244 )( + T2 186 ) ) )
(or ( <= ( + T2 205 )  ( + T7 244 ) ) ( <= ( + T7 313 )( + T2 191 ) ) )
(or ( <= ( + T2 8 ) T8 ) ( <= ( + T8 84 ) T2 ) )
(or ( <= ( + T2 102 )  ( + T8 84 ) ) ( <= ( + T8 130 )( + T2 8 ) ) )
(or ( <= ( + T2 111 )  ( + T8 130 ) ) ( <= ( + T8 169 )( + T2 102 ) ) )
(or ( <= ( + T2 186 )  ( + T8 169 ) ) ( <= ( + T8 181 )( + T2 111 ) ) )
(or ( <= ( + T2 191 )  ( + T8 181 ) ) ( <= ( + T8 198 )( + T2 186 ) ) )
(or ( <= ( + T2 205 )  ( + T8 198 ) ) ( <= ( + T8 266 )( + T2 191 ) ) )
(or ( <= ( + T3 57 ) T4 ) ( <= ( + T4 29 ) T3 ) )
(or ( <= ( + T3 75 )  ( + T4 29 ) ) ( <= ( + T4 124 )( + T3 57 ) ) )
(or ( <= ( + T3 152 )  ( + T4 124 ) ) ( <= ( + T4 204 )( + T3 75 ) ) )
(or ( <= ( + T3 171 )  ( + T4 204 ) ) ( <= ( + T4 287 )( + T3 152 ) ) )
(or ( <= ( + T3 201 )  ( + T4 287 ) ) ( <= ( + T4 356 )( + T3 171 ) ) )
(or ( <= ( + T3 217 )  ( + T4 356 ) ) ( <= ( + T4 397 )( + T3 201 ) ) )
(or ( <= ( + T3 57 ) T5 ) ( <= ( + T5 4 ) T3 ) )
(or ( <= ( + T3 75 )  ( + T5 4 ) ) ( <= ( + T5 19 )( + T3 57 ) ) )
(or ( <= ( + T3 152 )  ( + T5 19 ) ) ( <= ( + T5 95 )( + T3 75 ) ) )
(or ( <= ( + T3 171 )  ( + T5 95 ) ) ( <= ( + T5 179 )( + T3 152 ) ) )
(or ( <= ( + T3 201 )  ( + T5 179 ) ) ( <= ( + T5 220 )( + T3 171 ) ) )
(or ( <= ( + T3 217 )  ( + T5 220 ) ) ( <= ( + T5 228 )( + T3 201 ) ) )
(or ( <= ( + T3 57 ) T6 ) ( <= ( + T6 43 ) T3 ) )
(or ( <= ( + T3 75 )  ( + T6 43 ) ) ( <= ( + T6 92 )( + T3 57 ) ) )
(or ( <= ( + T3 152 )  ( + T6 92 ) ) ( <= ( + T6 173 )( + T3 75 ) ) )
(or ( <= ( + T3 171 )  ( + T6 173 ) ) ( <= ( + T6 254 )( + T3 152 ) ) )
(or ( <= ( + T3 201 )  ( + T6 254 ) ) ( <= ( + T6 310 )( + T3 171 ) ) )
(or ( <= ( + T3 217 )  ( + T6 310 ) ) ( <= ( + T6 330 )( + T3 201 ) ) )
(or ( <= ( + T3 57 ) T7 ) ( <= ( + T7 58 ) T3 ) )
(or ( <= ( + T3 75 )  ( + T7 58 ) ) ( <= ( + T7 122 )( + T3 57 ) ) )
(or ( <= ( + T3 152 )  ( + T7 122 ) ) ( <= ( + T7 187 )( + T3 75 ) ) )
(or ( <= ( + T3 171 )  ( + T7 187 ) ) ( <= ( + T7 206 )( + T3 152 ) ) )
(or ( <= ( + T3 201 )  ( + T7 206 ) ) ( <= ( + T7 244 )( + T3 171 ) ) )
(or ( <= ( + T3 217 )  ( + T7 244 ) ) ( <= ( + T7 313 )( + T3 201 ) ) )
(or ( <= ( + T3 57 ) T8 ) ( <= ( + T8 84 ) T3 ) )
(or ( <= ( + T3 75 )  ( + T8 84 ) ) ( <= ( + T8 130 )( + T3 57 ) ) )
(or ( <= ( + T3 152 )  ( + T8 130 ) ) ( <= ( + T8 169 )( + T3 75 ) ) )
(or ( <= ( + T3 171 )  ( + T8 169 ) ) ( <= ( + T8 181 )( + T3 152 ) ) )
(or ( <= ( + T3 201 )  ( + T8 181 ) ) ( <= ( + T8 198 )( + T3 171 ) ) )
(or ( <= ( + T3 217 )  ( + T8 198 ) ) ( <= ( + T8 266 )( + T3 201 ) ) )
(or ( <= ( + T4 29 ) T5 ) ( <= ( + T5 4 ) T4 ) )
(or ( <= ( + T4 124 )  ( + T5 4 ) ) ( <= ( + T5 19 )( + T4 29 ) ) )
(or ( <= ( + T4 204 )  ( + T5 19 ) ) ( <= ( + T5 95 )( + T4 124 ) ) )
(or ( <= ( + T4 287 )  ( + T5 95 ) ) ( <= ( + T5 179 )( + T4 204 ) ) )
(or ( <= ( + T4 356 )  ( + T5 179 ) ) ( <= ( + T5 220 )( + T4 287 ) ) )
(or ( <= ( + T4 397 )  ( + T5 220 ) ) ( <= ( + T5 228 )( + T4 356 ) ) )
(or ( <= ( + T4 29 ) T6 ) ( <= ( + T6 43 ) T4 ) )
(or ( <= ( + T4 124 )  ( + T6 43 ) ) ( <= ( + T6 92 )( + T4 29 ) ) )
(or ( <= ( + T4 204 )  ( + T6 92 ) ) ( <= ( + T6 173 )( + T4 124 ) ) )
(or ( <= ( + T4 287 )  ( + T6 173 ) ) ( <= ( + T6 254 )( + T4 204 ) ) )
(or ( <= ( + T4 356 )  ( + T6 254 ) ) ( <= ( + T6 310 )( + T4 287 ) ) )
(or ( <= ( + T4 397 )  ( + T6 310 ) ) ( <= ( + T6 330 )( + T4 356 ) ) )
(or ( <= ( + T4 29 ) T7 ) ( <= ( + T7 58 ) T4 ) )
(or ( <= ( + T4 124 )  ( + T7 58 ) ) ( <= ( + T7 122 )( + T4 29 ) ) )
(or ( <= ( + T4 204 )  ( + T7 122 ) ) ( <= ( + T7 187 )( + T4 124 ) ) )
(or ( <= ( + T4 287 )  ( + T7 187 ) ) ( <= ( + T7 206 )( + T4 204 ) ) )
(or ( <= ( + T4 356 )  ( + T7 206 ) ) ( <= ( + T7 244 )( + T4 287 ) ) )
(or ( <= ( + T4 397 )  ( + T7 244 ) ) ( <= ( + T7 313 )( + T4 356 ) ) )
(or ( <= ( + T4 29 ) T8 ) ( <= ( + T8 84 ) T4 ) )
(or ( <= ( + T4 124 )  ( + T8 84 ) ) ( <= ( + T8 130 )( + T4 29 ) ) )
(or ( <= ( + T4 204 )  ( + T8 130 ) ) ( <= ( + T8 169 )( + T4 124 ) ) )
(or ( <= ( + T4 287 )  ( + T8 169 ) ) ( <= ( + T8 181 )( + T4 204 ) ) )
(or ( <= ( + T4 356 )  ( + T8 181 ) ) ( <= ( + T8 198 )( + T4 287 ) ) )
(or ( <= ( + T4 397 )  ( + T8 198 ) ) ( <= ( + T8 266 )( + T4 356 ) ) )
(or ( <= ( + T5 4 ) T6 ) ( <= ( + T6 43 ) T5 ) )
(or ( <= ( + T5 19 )  ( + T6 43 ) ) ( <= ( + T6 92 )( + T5 4 ) ) )
(or ( <= ( + T5 95 )  ( + T6 92 ) ) ( <= ( + T6 173 )( + T5 19 ) ) )
(or ( <= ( + T5 179 )  ( + T6 173 ) ) ( <= ( + T6 254 )( + T5 95 ) ) )
(or ( <= ( + T5 220 )  ( + T6 254 ) ) ( <= ( + T6 310 )( + T5 179 ) ) )
(or ( <= ( + T5 228 )  ( + T6 310 ) ) ( <= ( + T6 330 )( + T5 220 ) ) )
(or ( <= ( + T5 4 ) T7 ) ( <= ( + T7 58 ) T5 ) )
(or ( <= ( + T5 19 )  ( + T7 58 ) ) ( <= ( + T7 122 )( + T5 4 ) ) )
(or ( <= ( + T5 95 )  ( + T7 122 ) ) ( <= ( + T7 187 )( + T5 19 ) ) )
(or ( <= ( + T5 179 )  ( + T7 187 ) ) ( <= ( + T7 206 )( + T5 95 ) ) )
(or ( <= ( + T5 220 )  ( + T7 206 ) ) ( <= ( + T7 244 )( + T5 179 ) ) )
(or ( <= ( + T5 228 )  ( + T7 244 ) ) ( <= ( + T7 313 )( + T5 220 ) ) )
(or ( <= ( + T5 4 ) T8 ) ( <= ( + T8 84 ) T5 ) )
(or ( <= ( + T5 19 )  ( + T8 84 ) ) ( <= ( + T8 130 )( + T5 4 ) ) )
(or ( <= ( + T5 95 )  ( + T8 130 ) ) ( <= ( + T8 169 )( + T5 19 ) ) )
(or ( <= ( + T5 179 )  ( + T8 169 ) ) ( <= ( + T8 181 )( + T5 95 ) ) )
(or ( <= ( + T5 220 )  ( + T8 181 ) ) ( <= ( + T8 198 )( + T5 179 ) ) )
(or ( <= ( + T5 228 )  ( + T8 198 ) ) ( <= ( + T8 266 )( + T5 220 ) ) )
(or ( <= ( + T6 43 ) T7 ) ( <= ( + T7 58 ) T6 ) )
(or ( <= ( + T6 92 )  ( + T7 58 ) ) ( <= ( + T7 122 )( + T6 43 ) ) )
(or ( <= ( + T6 173 )  ( + T7 122 ) ) ( <= ( + T7 187 )( + T6 92 ) ) )
(or ( <= ( + T6 254 )  ( + T7 187 ) ) ( <= ( + T7 206 )( + T6 173 ) ) )
(or ( <= ( + T6 310 )  ( + T7 206 ) ) ( <= ( + T7 244 )( + T6 254 ) ) )
(or ( <= ( + T6 330 )  ( + T7 244 ) ) ( <= ( + T7 313 )( + T6 310 ) ) )
(or ( <= ( + T6 43 ) T8 ) ( <= ( + T8 84 ) T6 ) )
(or ( <= ( + T6 92 )  ( + T8 84 ) ) ( <= ( + T8 130 )( + T6 43 ) ) )
(or ( <= ( + T6 173 )  ( + T8 130 ) ) ( <= ( + T8 169 )( + T6 92 ) ) )
(or ( <= ( + T6 254 )  ( + T8 169 ) ) ( <= ( + T8 181 )( + T6 173 ) ) )
(or ( <= ( + T6 310 )  ( + T8 181 ) ) ( <= ( + T8 198 )( + T6 254 ) ) )
(or ( <= ( + T6 330 )  ( + T8 198 ) ) ( <= ( + T8 266 )( + T6 310 ) ) )
(or ( <= ( + T7 58 ) T8 ) ( <= ( + T8 84 ) T7 ) )
(or ( <= ( + T7 122 )  ( + T8 84 ) ) ( <= ( + T8 130 )( + T7 58 ) ) )
(or ( <= ( + T7 187 )  ( + T8 130 ) ) ( <= ( + T8 169 )( + T7 122 ) ) )
(or ( <= ( + T7 206 )  ( + T8 169 ) ) ( <= ( + T8 181 )( + T7 187 ) ) )
(or ( <= ( + T7 244 )  ( + T8 181 ) ) ( <= ( + T8 198 )( + T7 206 ) ) )
(or ( <= ( + T7 313 )  ( + T8 198 ) ) ( <= ( + T8 266 )( + T7 244 ) ) )
( <= ( + T1 291 ) Z)
( <= ( + T2 205 ) Z)
( <= ( + T3 217 ) Z)
( <= ( + T4 397 ) Z)
( <= ( + T5 228 ) Z)
( <= ( + T6 330 ) Z)
( <= ( + T7 313 ) Z)
( <= ( + T8 266 ) Z)
( >= T1 0 )
( >= T2 0 )
( >= T3 0 )
( >= T4 0 )
( >= T5 0 )
( >= T6 0 )
( >= T7 0 )
( >= T8 0 )
) )
(minimize Z)
(check-sat)